10	5
0	4	1	3	2	4
1	1	9
2	1	7
3	2	9	5
4	3	9	6	10
5	1	11
6	1	11
7	3	10	9	5
8	1	11
9	1	11
10	1	11
11	0
0	0	0	0	0	0	0
1	3	2	3	5	5	4
2	4	5	2	4	3	5
3	2	2	1	1	1	2
4	2	1	1	4	1	4
5	3	5	4	1	5	2
6	8	4	1	3	4	2
7	4	3	3	3	5	2
8	5	5	4	4	3	5
9	4	1	1	2	1	3
10	3	5	4	5	4	4
11	0	0	0	0	0	0
12	9	10	11	10
